161 5
10 10 10 10 10 

0 0 0 0 0 0 5 2 24 46 68 80 
0 0 0 0 0 0 3 3 15 22 
4 2 0 0 0 2 2 21 4 
6 4 0 0 0 6 1 5 
7 5 0 0 0 10 1 6 
1 5 0 0 0 6 1 7 
7 5 0 0 0 9 1 8 
6 10 0 0 0 9 1 9 
6 8 0 0 0 5 2 20 10 
3 10 0 0 0 7 2 11 89 
5 8 0 0 0 10 1 12 
7 10 0 0 0 6 2 19 13 
8 10 0 0 0 10 1 14 
5 7 0 0 0 6 1 16 
1 10 0 0 0 9 1 16 
8 9 0 0 0 7 1 17 
10 10 0 0 0 10 1 18 
5 8 0 0 0 10 1 23 
5 4 0 0 0 7 1 23 
2 5 0 0 0 6 1 23 
10 10 0 0 0 5 1 23 
4 10 0 0 0 10 1 23 
0 0 0 0 0 0 1 126 
0 0 0 0 0 0 3 25 32 39 
8 5 0 1 0 0 3 44 41 26 
10 4 0 7 0 0 1 27 
4 6 0 9 0 0 1 28 
10 8 0 6 0 0 1 29 
9 8 0 8 0 0 1 30 
1 6 0 10 0 0 1 31 
3 4 0 9 0 0 1 33 
4 10 0 8 0 0 1 33 
6 8 0 10 0 0 2 43 34 
8 10 0 10 0 0 1 35 
8 10 0 7 0 0 2 36 69 
8 9 0 5 0 0 1 37 
2 4 0 9 0 0 1 38 
4 10 0 10 0 0 1 40 
10 6 0 10 0 0 1 41 
1 6 0 5 0 0 1 42 
2 8 0 5 0 0 1 42 
2 10 0 6 0 0 1 45 
5 8 0 9 0 0 1 45 
7 10 0 6 0 0 1 45 
0 0 0 0 0 0 1 126 
0 0 0 0 0 0 3 47 54 56 
9 3 0 1 0 0 1 48 
3 8 0 6 0 0 1 49 
7 7 0 10 0 0 1 50 
2 5 0 6 0 0 2 51 110 
8 6 0 6 0 0 2 62 52 
6 4 0 6 0 0 1 53 
10 7 0 9 0 0 1 55 
2 10 0 5 0 0 1 55 
9 6 0 7 0 0 2 66 57 
3 8 0 7 0 0 2 63 59 
8 10 0 10 0 0 1 58 
5 7 0 9 0 0 1 59 
5 10 0 10 0 0 1 60 
5 9 0 7 0 0 1 61 
2 10 0 10 0 0 1 64 
9 7 0 10 0 0 1 64 
8 10 0 5 0 0 1 64 
2 10 0 10 0 0 1 65 
7 4 0 6 0 0 1 67 
1 9 0 10 0 0 1 67 
0 0 0 0 0 0 1 126 
0 0 0 0 0 0 2 69 71 
1 0 3 0 0 0 1 70 
10 0 6 0 0 0 2 75 72 
7 0 7 0 0 0 2 75 73 
6 0 10 0 0 0 1 73 
7 0 8 0 0 0 1 74 
10 0 8 0 0 0 1 76 
2 0 9 0 0 0 1 76 
3 0 7 0 0 0 2 78 77 
9 0 9 0 0 0 2 79 124 
5 0 8 0 0 0 1 79 
0 0 0 0 0 0 2 102 114 
0 0 0 0 0 0 5 81 98 99 100 124 
1 3 0 0 0 3 2 93 82 
6 2 0 0 0 5 1 83 
3 10 0 0 0 9 1 84 
7 8 0 0 0 7 1 85 
10 10 0 0 0 3 1 86 
7 6 0 0 0 10 1 87 
9 10 0 0 0 10 1 88 
10 8 0 0 0 6 1 89 
5 5 0 0 0 9 2 97 90 
2 7 0 0 0 7 1 91 
2 10 0 0 0 6 1 92 
3 7 0 0 0 10 1 94 
4 5 0 0 0 6 1 94 
3 8 0 0 0 10 1 95 
8 7 0 0 0 7 1 96 
9 10 0 0 0 10 1 101 
3 10 0 0 0 6 1 101 
9 8 0 0 0 10 1 101 
3 8 0 0 0 9 1 101 
7 8 0 0 0 7 1 101 
0 0 0 0 0 0 1 126 
0 0 0 0 0 0 2 103 107 
5 0 0 0 0 2 1 104 
8 0 0 0 0 5 2 110 105 
2 0 0 0 0 10 1 106 
7 0 0 0 0 7 3 112 108 122 
7 0 0 0 0 7 2 110 109 
9 0 0 0 0 8 1 109 
6 0 0 0 0 8 1 111 
10 0 0 0 0 9 1 112 
8 0 0 0 0 10 1 113 
1 0 0 0 0 9 1 113 
0 0 0 0 0 0 1 126 
0 0 0 0 0 0 3 115 118 121 
9 0 0 0 0 4 1 116 
3 0 0 0 0 4 2 120 117 
10 0 0 0 0 7 1 119 
6 0 0 0 0 10 1 119 
2 0 0 0 0 10 1 122 
9 0 0 0 0 5 1 122 
1 0 0 0 0 7 1 122 
3 0 0 0 0 10 1 123 
3 0 0 0 0 10 1 124 
3 0 0 0 0 8 1 125 
0 0 0 0 0 0 1 126 
0 0 0 0 0 0 1 127 
4 0 0 0 3 0 1 128 
1 0 0 0 7 0 1 129 
7 0 0 0 10 0 1 130 
4 0 0 0 8 0 2 132 131 
9 0 0 0 10 0 2 134 133 
9 0 0 0 10 0 2 136 134 
2 0 0 0 9 0 2 136 135 
5 0 0 0 8 0 1 135 
10 0 0 0 5 0 1 137 
8 0 0 0 5 0 1 137 
0 0 0 0 0 0 1 138 
0 0 0 0 0 0 2 139 142 
10 0 0 0 2 0 1 140 
2 0 0 0 9 0 2 145 141 
4 0 0 0 8 0 1 143 
5 0 0 0 5 0 1 143 
2 0 0 0 7 0 1 144 
3 0 0 0 9 0 2 148 146 
8 0 0 0 7 0 2 148 147 
8 0 0 0 8 0 1 147 
5 0 0 0 10 0 1 149 
4 0 0 0 10 0 1 149 
0 0 0 0 0 0 1 150 
0 0 0 0 0 0 3 151 154 160 
10 0 0 5 0 0 1 152 
8 0 0 5 0 0 1 153 
2 0 0 10 0 0 2 157 155 
2 0 0 2 0 0 1 155 
4 0 0 4 0 0 1 156 
2 0 0 10 0 0 1 158 
5 0 0 10 0 0 1 158 
2 0 0 10 0 0 1 159 
10 0 0 10 0 0 1 161 
1 0 0 9 0 0 1 161 
0 0 0 0 0 0 0 
